ACTORES = {Actor1, Actor2, Actor3} ;

Escenas = [| 0,1,0,0,0,0,10
           | 0,1,1,1,0,1,20
           | 0,0,0,0,1,1,15|]; 
           
Duracion = [2,1,1,1,3,4];



% ----------
% 5 6 4 3 2 1 255
% ----------
% ==========
% Finished in 539msec.

